# Cost: 1117

# Tail Head Net
113  33 1
193 113 1
273 193 1
353 273 1
433 353 1
513 433 1
593 513 1
673 593 1
753 673 1
833 753 1
913 833 1
993 913 1
1073 993 1
1153 1073 1
1233 1153 1
1313 1233 1
1393 1313 1
1473 1393 1
1553 1473 1
1633 1553 1
1713 1633 1
1793 1713 1
1873 1793 1
1953 1873 1
2033 1953 1
2113 2033 1
2193 2113 1
2273 2193 1
2353 2273 1
2433 2353 1
2513 2433 1
2593 2513 1
2673 2593 1
2753 2673 1
2833 2753 1
2913 2833 1
2993 2913 1
3073 2993 1
3153 3073 1
3233 3153 1
3313 3233 1
3393 3313 1
3473 3393 1
3553 3473 1
3633 3553 1
3713 3633 1
3793 3713 1
3873 3793 1
3953 3873 1
4033 3953 1
4113 4033 1
4193 4113 1
4273 4193 1
4353 4273 1
4433 4353 1
4513 4433 1
4593 4513 1
4673 4593 1
4753 4673 1
4833 4753 1
4913 4833 1
4913 4914 1
4914 4915 1
4915 4916 1
4916 4917 1
4917 4918 1
4918 4919 1
4919 4920 1
4920 4921 1
4921 4922 1
4922 4923 1
4923 4924 1
4924 4925 1
4925 4926 1
4926 4927 1
4927 4928 1
4928 4929 1
4929 4930 1
4930 4931 1
4931 4932 1
4932 4933 1
4933 4934 1
4934 4935 1
4935 4936 1
4936 4937 1
4937 4938 1
4938 4939 1
4939 4940 1
4940 4941 1
4941 4942 1
4942 4943 1
4943 4944 1
4944 4945 1
4945 4946 1
4946 4947 1
4947 4948 1
4948 4949 1
4949 4950 1
4950 4951 1
4951 4952 1
4952 4953 1
4953 4954 1
4954 4955 1
4955 4956 1
4956 4957 1
4957 4958 1
4958 4959 1
4959 4960 1
4980 4981 1
4981 4982 1
4982 4983 1
4983 4984 1
4984 4985 1
4985 4986 1
4986 4987 1
4987 4988 1
4988 4989 1
4989 4990 1
4990 4991 1
4991 4992 1
4992 4993 1
4993 4913 1
5057 5058 1
5058 5059 1
5059 5060 1
5060 4980 1
5132 5133 1
5133 5134 1
5134 5135 1
5135 5136 1
5136 5137 1
5137 5057 1
5212 5132 1
5291 5292 1
5292 5212 1
5369 5370 1
5370 5371 1
5371 5291 1
5447 5448 1
5448 5449 1
5449 5369 1
5526 5527 1
5527 5447 1
5605 5606 1
5606 5526 1
5683 5684 1
5684 5685 1
5685 5605 1
5761 5762 1
5762 5763 1
5763 5683 1
5841 5761 1
 19  20 2
 20  21 2
 99  19 2
 21 6421 2
6421 6422 2
6422 6423 2
6423 6424 2
6424 6425 2
6425 6426 2
6426 6427 2
6427 6428 2
6428 6429 2
6429 6430 2
6430 6431 2
6431 6432 2
6432 6433 2
 34  35 2
6433 6434 2
 35  36 2
6434  34 2
 36  37 2
 37  38 2
 38  39 2
 39  40 2
178 179 2
179  99 2
258 178 2
338 258 2
418 338 2
497 498 2
498 418 2
577 497 2
657 577 2
737 657 2
817 737 2
897 817 2
977 897 2
1057 977 2
1137 1057 2
1217 1137 2
1297 1217 2
1377 1297 2
1457 1377 2
1537 1457 2
1617 1537 2
1697 1617 2
1777 1697 2
1857 1777 2
1937 1857 2
2017 1937 2
2097 2017 2
2177 2097 2
2256 2257 2
2257 2177 2
2336 2256 2
2416 2336 2
2482 2483 2
2483 2484 2
2484 2485 2
2485 2486 2
2486 2487 2
2487 2488 2
2488 2489 2
2489 2490 2
2490 2491 2
2491 2492 2
2492 2493 2
2493 2494 2
2494 2495 2
2495 2496 2
2496 2416 2
2562 2482 2
2642 2562 2
2722 2642 2
2802 2722 2
2882 2802 2
2961 2962 2
2962 2882 2
3041 2961 2
3121 3041 2
3201 3121 2
3281 3201 2
3361 3281 2
3441 3361 2
3521 3441 2
3601 3521 2
3681 3601 2
3761 3681 2
3841 3761 2
3921 3841 2
4001 3921 2
4081 4001 2
4161 4081 2
4241 4161 2
4321 4241 2
4401 4321 2
4481 4401 2
4561 4481 2
4641 4561 2
4721 4641 2
4801 4721 2
4881 4801 2
4961 4881 2
5041 4961 2
5121 5041 2
5201 5121 2
5281 5201 2
5361 5281 2
5441 5361 2
 17  16 3
 18  17 3
6418  18 3
6419 6418 3
6420 6419 3
 30 110 3
110 6510 3
6456 6457 3
6457 6458 3
6458 6459 3
6459 6460 3
 61  62 3
6460 6461 3
 62  63 3
6461  61 3
 63  64 3
6500 6420 3
6501 6500 3
6502 6501 3
6503 6502 3
6504 6503 3
6505 6504 3
6506 6505 3
6507 6506 3
6508 6507 3
6509 6508 3
6510 6509 3
6510 6511 3
6511 6512 3
6512 6513 3
6513 6514 3
6514 6515 3
6515 6516 3
6516 6517 3
6517 6518 3
6518 6519 3
6519 6520 3
6520 6521 3
6521 6522 3
6522 6523 3
6523 6524 3
6524 6525 3
6525 6526 3
6526 6527 3
6527 6528 3
6528 6529 3
6529 6530 3
6530 6531 3
6531 6532 3
6532 6533 3
6533 6534 3
6534 6535 3
6535 6536 3
6536 6456 3
1521 1522 4
1522 1523 4
1523 1524 4
1524 1525 4
1525 1526 4
1526 1527 4
1527 1528 4
1528 1529 4
1529 1530 4
1530 1531 4
1531 7931 4
7931 7932 4
7932 7933 4
7933 7934 4
7934 7935 4
7935 7936 4
7936 7937 4
7937 7938 4
7938 7939 4
7939 7940 4
7940 7941 4
7941 7942 4
7942 7943 4
7943 7944 4
7944 7945 4
7945 7946 4
7946 7947 4
7947 7948 4
7948 7949 4
7949 7950 4
7950 7951 4
7951 7952 4
7952 7953 4
7953 7954 4
7954 7955 4
7955 7956 4
7956 7957 4
7957 7958 4
7958 7959 4
7959 7960 4
7960 7961 4
7961 7962 4
7962 7963 4
7963 7964 4
7964 7965 4
7965 7966 4
7966 7967 4
7967 7968 4
7968 7969 4
7969 7970 4
7970 7971 4
7971 7972 4
7972 7973 4
7973 7974 4
7974 7975 4
7975 7976 4
7976 7977 4
7977 7978 4
7978 7979 4
7979 7980 4
7980 7981 4
7981 7982 4
7982 7983 4
7983 7984 4
7984 7985 4
7985 7986 4
7986 7987 4
7987 7988 4
7988 7989 4
7989 7990 4
7990 7991 4
7991 7992 4
7992 7993 4
7993 7994 4
7994 7995 4
7995 7996 4
7996 7997 4
7997 7998 4
7998 8078 4
8078 8079 4
8079 8080 4
8080 8160 4
8160 8240 4
8240 8320 4
8320 8400 4
8400 8480 4
8480 8560 4
2240 2320 4
8560 8640 4
2320 2400 4
8640 2240 4
2400 2480 4
2480 2560 4
2560 2640 4
2640 2720 4
2720 2800 4
2800 2880 4
2880 2960 4
2960 3040 4
3040 3120 4
3120 3200 4
3200 3280 4
3280 3360 4
3360 3440 4
3440 3520 4
 46  47 5
 47  48 5
 48  49 5
 49  50 5
 50  51 5
 51  52 5
 52  53 5
 53  54 5
 54  55 5
 55  56 5
 56  57 5
 57  58 5
 58  59 5
 59 139 5
139 219 5
219 299 5
299 379 5
379 459 5
459 460 5
460 540 5
540 620 5
620 700 5
700 780 5
780 860 5
860 940 5
940 1020 5
1020 1100 5
1100 1180 5
1180 1260 5
1260 1340 5
1340 1420 5
1420 1500 5
1500 1501 5
1501 1502 5
1502 1582 5
1582 1583 5
1583 1584 5
1584 1585 5
1585 1586 5
1586 1587 5
1587 1588 5
1588 1589 5
1589 1590 5
1590 1591 5
1591 1592 5
1592 1593 5
1593 1594 5
1594 1595 5
1595 1675 5
1675 1676 5
1676 1756 5
1756 1757 5
1757 1758 5
1758 8158 5
8158 8238 5
8238 8318 5
8318 8398 5
8398 8478 5
8478 8558 5
8558 8638 5
8638 8718 5
8718 8798 5
8798 8878 5
8878 8958 5
8958 9038 5
9038 9118 5
9118 9198 5
9198 9278 5
9278 9358 5
9358 9438 5
9438 9518 5
9518 9598 5
9598 9678 5
9678 9758 5
9758 9838 5
9838 9839 5
9839 9919 5
9919 9999 5
9999 10079 5
10079 10159 5
10159 10239 5
10239 10319 5
10319 10320 5
10320 10400 5
10400 10480 5
10480 10560 5
10560 10640 5
10640 10720 5
10720 10800 5
10800 10880 5
10880 10960 5
10960 11040 5
11040 11120 5
11120 11200 5
11200 11280 5
11280 11360 5
11360 11440 5
11440 11520 5
11520 11600 5
11600 11680 5
11680 11760 5
11760 11840 5
11840 11920 5
11920 12000 5
12000 12080 5
12080 12160 5
5840 5920 5
12160 12240 5
5920 6000 5
12240 5840 5
6000 6080 5
6241 6161 6
6321 6241 6
6322 6321 6
6323 6322 6
6324 6323 6
6325 6324 6
6326 6325 6
6327 6326 6
6328 6327 6
6329 6328 6
6330 6329 6
6331 6330 6
6332 6331 6
6333 6332 6
6334 6333 6
6335 6334 6
6336 6335 6
6337 6336 6
6338 6337 6
6339 6338 6
6340 6339 6
6341 6340 6
6342 6341 6
6343 6342 6
6344 6343 6
6345 6344 6
6346 6345 6
6347 6346 6
6348 6347 6
6348 6349 6
6349 6350 6
6350 6351 6
6351 6352 6
6352 6353 6
6353 6354 6
6354 6355 6
6355 6356 6
6356 6357 6
6357 6358 6
6358 6359 6
6359 6360 6
6360 6361 6
6361 6362 6
6362 6363 6
6363 6364 6
6364 6365 6
6365 6366 6
6366 6367 6
6367 6368 6
6368 6369 6
6369 6370 6
6370 6371 6
6371 6372 6
6372 6373 6
6373 6374 6
6374 6375 6
6375 6376 6
6376 6377 6
6377 6378 6
6378 6379 6
6379 6380 6
6380 6381 6
6381 6382 6
6382 6383 6
6383 6384 6
6384 6385 6
6385 6386 6
6386 6387 6
6387 6388 6
6388 6389 6
6389 6390 6
  8   7 7
  9   8 7
 10   9 7
 11  10 7
 12  11 7
 13  12 7
 14  13 7
4639 4640 8
4640 4560 8
4719 4639 8
11119 4719 8
11199 11119 8
11279 11199 8
11359 11279 8
11439 11359 8
5199 11599 8
11519 11439 8
5279 5199 8
11599 11519 8
5359 5279 8
5360 5359 8
5440 5360 8
5520 5440 8
5600 5520 8
5680 5600 8
8161 1761 9
8241 8161 9
8321 8241 9
8401 8321 9
8481 8401 9
8561 8481 9
8641 8561 9
8721 8641 9
8801 8721 9
8881 8801 9
8961 8881 9
9041 8961 9
9121 9041 9
9201 9121 9
9281 9201 9
9361 9281 9
9441 9361 9
9521 9441 9
9601 9521 9
9681 9601 9
9761 9681 9
9841 9761 9
9921 9841 9
10001 9921 9
10081 10001 9
10161 10081 9
10241 10161 9
10321 10241 9
10401 10321 9
10481 10401 9
10561 10481 9
10641 10561 9
10721 10641 9
10801 10721 9
10881 10801 9
10961 10881 9
11041 10961 9
11121 11041 9
11201 11121 9
11281 11201 9
11361 11281 9
11441 11361 9
11521 11441 9
11601 11521 9
11681 11601 9
11761 11681 9
11841 11761 9
11921 11841 9
12001 11921 9
12081 12001 9
12161 12081 9
12241 12161 9
12321 12241 9
6081 12481 9
12401 12321 9
6082 6081 9
6083 6082 9
6084 6083 9
6085 6084 9
6086 6085 9
6087 6086 9
6088 6087 9
6089 6088 9
6090 6089 9
6091 6090 9
6092 6091 9
6093 6092 9
6094 6093 9
6095 6094 9
6096 6095 9
6097 6096 9
6098 6097 9
6099 6098 9
6100 6099 9
6101 6100 9
6102 6101 9
6103 6102 9
6104 6103 9
6105 6104 9
6106 6105 9
6107 6106 9
6108 6107 9
6109 6108 9
6110 6109 9
6111 6110 9
6112 6111 9
6113 6112 9
6114 6113 9
6115 6114 9
6116 6115 9
6117 6116 9
6118 6117 9
6119 6118 9
6120 6119 9
6121 6120 9
6122 6121 9
6123 6122 9
6124 6123 9
6125 6124 9
6126 6125 9
6127 6126 9
6128 6127 9
6129 6128 9
6130 6129 9
6131 6130 9
6132 6131 9
6133 6132 9
6134 6133 9
6135 6134 9
6136 6135 9
6137 6136 9
6138 6137 9
6139 6138 9
6140 6139 9
6141 6140 9
6142 6141 9
6143 6142 9
6144 6143 9
6145 6144 9
6146 6145 9
6147 6146 9
6148 6147 9
6149 6148 9
6150 6149 9
6151 6150 9
6152 6151 9
6153 6152 9
6154 6153 9
6155 6154 9
6156 6155 9
6157 6156 9
6158 6157 9
6159 6158 9
6160 6159 9
12481 12401 9
 82   2 10
162  82 10
242 162 10
322 242 10
402 322 10
482 402 10
562 482 10
642 562 10
722 642 10
802 722 10
882 802 10
962 882 10
1042 962 10
1122 1042 10
7522 1122 10
7602 7522 10
7682 7602 10
7762 7682 10
7842 7762 10
7922 7842 10
8002 7922 10
1762 8162 10
8082 8002 10
1842 1762 10
8162 8082 10
1921 1922 10
1922 1842 10
2001 1921 10
2081 2001 10
2161 2081 10
2241 2161 10
2321 2241 10
2401 2321 10
2481 2401 10
400 480 11
480 560 11
560 640 11
640 720 11
720 800 11
800 880 11
880 960 11
960 1040 11
1040 1120 11
1120 1200 11
1200 1280 11
1280 1360 11
1360 1440 11
1440 7840 11
1442 1441 11
1443 1442 11
1444 1443 11
1445 1444 11
1446 1445 11
1447 1446 11
1448 1447 11
1449 1448 11
1450 1449 11
1451 1450 11
1452 1451 11
1453 1452 11
1454 1453 11
1455 1454 11
1456 1455 11
7840 7920 11
7856 1456 11
7857 7856 11
7858 7857 11
7859 7858 11
7860 7859 11
7861 7860 11
7862 7861 11
7863 7862 11
7864 7863 11
7865 7864 11
7866 7865 11
7867 7866 11
7868 7867 11
7869 7868 11
7870 7869 11
7871 7870 11
7872 7871 11
7873 7872 11
7874 7873 11
7875 7874 11
7876 7875 11
7877 7876 11
7878 7877 11
7879 7878 11
7880 7879 11
7881 7880 11
7882 7881 11
7883 7882 11
7884 7883 11
7885 7884 11
7886 7885 11
7887 7886 11
7888 7887 11
7889 7888 11
7890 7889 11
7891 7890 11
7892 7891 11
7893 7892 11
7894 7893 11
7895 7894 11
7896 7895 11
7897 7896 11
7898 7897 11
7899 7898 11
7900 7899 11
7901 7900 11
7902 7901 11
7903 7902 11
7904 7903 11
7905 7904 11
7906 7905 11
7907 7906 11
7908 7907 11
7909 7908 11
7910 7909 11
7911 7910 11
7912 7911 11
7913 7912 11
7914 7913 11
7915 7914 11
7916 7915 11
7917 7916 11
7918 7917 11
7919 7918 11
7920 7919 11
1682 1681 12
1683 1682 12
1684 1683 12
1685 1684 12
1686 1685 12
1687 1686 12
1688 1687 12
8088 1688 12
8089 8088 12
8090 8089 12
8091 8090 12
1794 8194 12
8171 8091 12
8172 8171 12
8173 8172 12
8174 8173 12
8175 8174 12
8176 8175 12
8177 8176 12
8178 8177 12
8179 8178 12
8180 8179 12
8181 8180 12
8182 8181 12
8183 8182 12
8184 8183 12
8185 8184 12
8186 8185 12
8187 8186 12
8188 8187 12
8189 8188 12
8190 8189 12
8191 8190 12
8192 8191 12
8193 8192 12
1874 1794 12
8194 8193 12
1875 1874 12
1876 1875 12
1877 1876 12
1878 1877 12
1879 1878 12
1880 1879 12
1881 1880 12
1882 1881 12
1883 1882 12
1884 1883 12
1885 1884 12
1886 1885 12
1887 1886 12
1888 1887 12
1889 1888 12
1890 1889 12
1891 1890 12
1892 1891 12
1893 1892 12
1894 1893 12
1895 1894 12
1896 1895 12
1897 1896 12
1898 1897 12
1899 1898 12
1900 1899 12
1901 1900 12
1902 1901 12
1903 1902 12
1904 1903 12
1905 1904 12
1906 1905 12
1907 1906 12
1908 1907 12
1909 1908 12
1910 1909 12
1911 1910 12
1912 1911 12
1913 1912 12
1914 1913 12
1994 1914 12
1995 1994 12
1996 1995 12
2076 1996 12
2077 2076 12
2078 2077 12
2079 2078 12
2080 2079 12
 31  32 13
 32 112 13
112 192 13
192 272 13
272 352 13
352 432 13
432 512 13
512 592 13
592 672 13
672 752 13
752 832 13
832 912 13
912 992 13
992 1072 13
1072 1152 13
1152 1232 13
1232 1312 13
1312 1392 13
1392 1472 13
1472 1552 13
1552 1632 13
1632 8032 13
8032 8033 13
8033 8034 13
8034 8035 13
8035 8036 13
8036 8037 13
8037 8038 13
8038 8039 13
8039 8040 13
8040 8041 13
8041 8042 13
8042 8043 13
8043 8044 13
8044 8045 13
8045 8046 13
8046 8047 13
8047 8048 13
8048 8049 13
8049 8050 13
8050 8051 13
8051 8052 13
8052 8053 13
8053 8054 13
8054 8055 13
8055 8056 13
8056 8057 13
8057 8058 13
8058 8059 13
8059 8060 13
8060 8061 13
8061 8062 13
8062 8063 13
8063 8064 13
8064 8065 13
8065 8066 13
8066 8067 13
8067 8068 13
8068 8069 13
8069 8070 13
8070 8071 13
8071 8072 13
8072 8073 13
8073 8074 13
8074 8075 13
8075 8076 13
8076 8077 13
8077 8157 13
8157 8237 13
8237 8317 13
8317 8397 13
8397 8477 13
8477 8557 13
8557 8637 13
8637 8717 13
8717 8797 13
8797 8877 13
8877 8957 13
8957 9037 13
9037 9117 13
9117 9197 13
9197 9277 13
9277 9357 13
9357 9437 13
9437 9517 13
9517 9597 13
9597 9677 13
9677 9757 13
9757 9837 13
9837 9917 13
9917 9918 13
9918 9998 13
9998 10078 13
10078 10158 13
10158 10238 13
10238 10318 13
10318 10398 13
10398 10478 13
10478 10558 13
10558 10638 13
10638 10718 13
10718 10798 13
10798 10878 13
10878 10958 13
10958 11038 13
11038 11118 13
11118 11198 13
11198 11278 13
11278 11358 13
11358 11438 13
11438 11518 13
11518 11598 13
11598 11678 13
11678 11679 13
11679 11759 13
11759 11839 13
11839 11919 13
11919 11999 13
11999 12079 13
12079 12159 13
12159 12239 13
12239 12319 13
12319 12320 13
12320 12400 13
12400 12480 13
12480 12560 13
12560 12640 13
12640 6240 13
4160 4240 14
4238 4318 14
4239 4238 14
4240 4239 14
4318 4398 14
4398 4478 14
4478 4558 14
4558 4638 14
4638 4718 14
4718 4798 14
4798 4799 14
4799 4800 14
4800 4880 14
